c Problem Statistics
c Number of variables: 1065
c Number of clauses: 910
c Parse time (sec.) : 0.00
c
p cnf 1065 313
-225 0
-224 0
-223 0
209 0
-207 0
222 0
-208 0
-221 0
-193 0
67 0
184 0
-185 0
200 0
-186 0
-201 0
202 0
216 0
-217 0
-218 0
-219 0
167 0
182 0
210 0
-194 0
1000 0
195 0
-20 0
26 0
-27 0
-29 0
-30 0
-44 0
-32 0
56 0
57 0
62 0
63 0
69 0
-70 0
84 0
85 0
71 0
-86 0
72 0
-87 0
102 0
-95 0
98 0
99 0
100 0
-101 0
-107 0
-122 0
-123 0
-109 0
110 0
-124 0
125 0
-126 0
115 0
116 0
117 0
-118 0
120 0
-146 0
-161 0
176 0
215 0
2 0
16 0
17 0
3 0
31 0
18 0
4 0
46 0
19 0
5 0
61 0
47 0
6 0
76 0
7 0
21 0
77 0
8 0
36 0
78 0
9 0
37 0
79 0
10 0
11 0
12 0
13 0
14 0
28 0
15 0
39 0
48 0
35 0
53 0
68 0
41 0
42 0
58 0
59 0
366 0
60 0
64 0
65 0
55 0
81 0
82 0
96 0
83 0
111 0
97 0
112 0
127 0
128 0
106 0
121 0
136 0
137 0
138 0
139 0
154 0
94 0
108 0
119 0
114 0
144 0
130 0
145 0
131 0
132 0
147 0
162 0
177 0
141 0
142 0
158 0
159 0
174 0
163 0
164 0
165 0
180 0
152 0
166 0
181 0
196 0
197 0
168 0
169 0
183 0
156 0
175 0
173 0
187 0
188 0
203 0
179 0
190 0
191 0
199 0
213 0
214 0
206 0
220 0
22 0
170 0
23 0
25 0
33 0
38 0
52 0
66 0
75 0
89 0
92 0
105 0
148 0
150 0
212 0
149 0
153 0
155 0
204 0
104 0
34 0
49 0
54 0
93 0
178 0
198 0
205 0
90 0
157 0
171 0
40 0
-391 51 50 -1 0
390 -51 50 1 0
-390 51 50 1 0
389 -51 -50 -1 0
-389 51 -50 -1 0
388 -51 -50 1 0
-388 51 -50 1 0
481 -74 73 43 0
480 -74 -43 73 0
-480 74 -43 73 0
479 -74 43 -73 0
810 -160 -143 -129 0
478 -74 -43 -73 0
-478 74 -43 -73 0
-810 160 -143 -129 0
-811 160 -143 129 0
-481 74 43 73 0
-479 74 43 -73 0
811 -160 -143 129 0
391 -51 50 -1 0
-74 134 133 -103 0
-133 -103 -134 -88 0
74 88 134 -133 0
-103 134 133 -88 0
74 88 -134 133 0
-74 -133 -134 -103 0
-812 -129 143 160 0
812 -129 143 -160 0
935 -129 -192 -189 0
934 -189 -192 129 0
925 -189 -143 -172 0
-925 -172 189 -143 0
813 -160 143 129 0
-813 160 143 129 0
937 -129 189 0
318 1 -50 0
50 1 80 0
133 192 129 0
706 -133 -129 0
545 -91 1 0
113 129 80 0
1009 -211 -151 0
-318 50 1 0
103 -134 133 0
1008 -211 151 0
91 -172 140 0
-140 -143 80 0
777 -91 -151 0
544 -91 -1 0
776 91 -151 0
-544 91 -1 0
-935 -129 192 0
-91 -151 172 0
-934 192 129 0
924 -189 143 0
-715 -134 135 0
708 -133 129 0
-924 189 143 0
-708 133 129 0
923 -189 172 0
936 189 129 0
278 -24 -1 0
-278 24 -1 0
277 -24 1 0
-277 1 24 0
-532 88 -73 0
151 -172 140 0
532 -88 -73 0
-533 88 73 0
533 -88 73 0
-592 -88 103 0
592 -88 -103 0
-593 88 103 0
593 88 -103 0
-629 113 -80 0
629 -113 -80 0
-133 103 134 0
735 91 -140 0
-735 91 140 0
733 -91 -140 0
-733 -91 140 0
717 134 -135 0
-717 135 134 0
715 -134 -135 0
-777 -91 151 0
-776 91 151 0
-545 91 1 0
-706 133 -129 0
-1009 -151 211 0
-24 43 -1 0
-1008 211 151 0
631 -113 80 0
-476 73 -43 0
-631 113 80 0
476 -73 -43 0
-477 73 43 0
477 -73 43 0
319 -50 -1 0
-319 50 -1 0
-923 189 172 0
-113 -129 0
-140 172 0
-129 -80 0
1 -43 0
-80 -1 0
-172 192 0
-80 143 0
192 189 0
-50 -80 0
143 140 0
-43 24 0
c restarts              : 878
c conflicts             : 91             (812 /sec)
c decisions             : 726411         (0.00 % random) (6485812 /sec)
c propagations          : 924462         (8254125 /sec)
c conflict literals     : 263            (5.73 % deleted)
c CPU time (sec.): 0.112
